p cnf 181 611
c p weight -71 1 0
c p weight 71 -1 0
c p weight 75 6.12323399573676603586882014729198302312846062338790031898128063403419218957424163818359375E-17 0
c p weight -75 1 0
c p weight 76 1 0
c p weight -76 1 0
c p weight -73 1 0
c p weight 73 -1 0
c p weight -77 1 0
c p weight 77 -1 0
c p weight -79 1 0
c p weight 79 -1 0
c p weight -82 1 0
c p weight 82 -1 0
c p weight -85 1 0
c p weight 85 -1 0
c p weight -88 1 0
c p weight 88 -1 0
c p weight -91 1 0
c p weight 91 -1 0
c p weight -94 1 0
c p weight 94 -1 0
c p weight -97 1 0
c p weight 97 -1 0
c p weight -100 1 0
c p weight 100 -1 0
c p weight -103 1 0
c p weight 103 -1 0
c p weight -106 1 0
c p weight 106 -1 0
c p weight -109 1 0
c p weight 109 -1 0
c p weight -112 1 0
c p weight 112 -1 0
c p weight -115 1 0
c p weight 115 -1 0
c p weight -118 1 0
c p weight 118 -1 0
c p weight -121 1 0
c p weight 121 -1 0
c p weight -124 1 0
c p weight 124 -1 0
c p weight -127 1 0
c p weight 127 -1 0
c p weight -130 1 0
c p weight 130 -1 0
c p weight -133 1 0
c p weight 133 -1 0
c p weight -136 1 0
c p weight 136 -1 0
c p weight -139 1 0
c p weight 139 -1 0
c p weight -142 1 0
c p weight 142 -1 0
c p weight -145 1 0
c p weight 145 -1 0
c p weight -148 1 0
c p weight 148 -1 0
c p weight -151 1 0
c p weight 151 -1 0
c p weight -154 1 0
c p weight 154 -1 0
c p weight -157 1 0
c p weight 157 -1 0
c p weight -160 1 0
c p weight 160 -1 0
c p weight -163 1 0
c p weight 163 -1 0
c p weight -166 1 0
c p weight 166 -1 0
c p weight -169 1 0
c p weight 169 -1 0
c p weight -172 1 0
c p weight 172 -1 0
c p weight -175 1 0
c p weight 175 -1 0
c p weight -178 1 0
c p weight 178 -1 0
c p weight 181 0.5 0
c p weight -181 1 0
181 0
-69 0
-67 0
-65 0
-63 0
-61 0
-59 0
-57 0
-55 0
-53 0
-51 0
-49 0
-47 0
-45 0
-43 0
-41 0
-39 0
-37 0
-35 0
-33 0
-31 0
-29 0
-27 0
-25 0
-23 0
-21 0
-19 0
-17 0
-15 0
-13 0
-11 0
-9 0
-7 0
-5 0
-3 0
-1 0
-71 69 0
-71 70 0
71 -69 -70 0
72 69 -70 0
72 -69 70 0
-72 69 70 0
-72 -69 -70 0
-73 74 0
-73 72 0
-73 -69 0
73 -74 69 -72 0
74 -69 72 0
-74 69 72 0
-75 72 0
74 -75 -69 0
-74 -75 69 0
74 75 69 -72 0
-74 75 -69 -72 0
-76 72 0
74 -76 69 0
-74 -76 -69 0
74 76 -69 -72 0
-74 76 69 -72 0
-77 74 0
-77 72 0
77 -74 -72 0
78 74 -72 0
78 -74 72 0
-78 74 72 0
-78 -74 -72 0
-79 74 0
-79 68 0
-79 67 -78 0
-79 -67 78 0
79 -74 67 78 -68 0
79 -74 -67 -78 -68 0
81 74 -67 0
81 -74 67 0
-81 74 67 0
-81 -74 -67 0
80 78 -68 0
80 -78 68 0
-80 78 68 0
-80 -78 -68 0
-82 81 0
-82 66 0
-82 65 -68 0
-82 -65 68 0
82 -81 65 68 -66 0
82 -81 -65 -68 -66 0
84 81 -65 0
84 -81 65 0
-84 81 65 0
-84 -81 -65 0
83 68 -66 0
83 -68 66 0
-83 68 66 0
-83 -68 -66 0
-85 84 0
-85 64 0
-85 63 -66 0
-85 -63 66 0
85 -84 63 66 -64 0
85 -84 -63 -66 -64 0
87 84 -63 0
87 -84 63 0
-87 84 63 0
-87 -84 -63 0
86 66 -64 0
86 -66 64 0
-86 66 64 0
-86 -66 -64 0
-88 87 0
-88 62 0
-88 61 -64 0
-88 -61 64 0
88 -87 61 64 -62 0
88 -87 -61 -64 -62 0
90 87 -61 0
90 -87 61 0
-90 87 61 0
-90 -87 -61 0
89 64 -62 0
89 -64 62 0
-89 64 62 0
-89 -64 -62 0
-91 90 0
-91 60 0
-91 59 -62 0
-91 -59 62 0
91 -90 59 62 -60 0
91 -90 -59 -62 -60 0
93 90 -59 0
93 -90 59 0
-93 90 59 0
-93 -90 -59 0
92 62 -60 0
92 -62 60 0
-92 62 60 0
-92 -62 -60 0
-94 93 0
-94 58 0
-94 57 -60 0
-94 -57 60 0
94 -93 57 60 -58 0
94 -93 -57 -60 -58 0
96 93 -57 0
96 -93 57 0
-96 93 57 0
-96 -93 -57 0
95 60 -58 0
95 -60 58 0
-95 60 58 0
-95 -60 -58 0
-97 96 0
-97 56 0
-97 55 -58 0
-97 -55 58 0
97 -96 55 58 -56 0
97 -96 -55 -58 -56 0
99 96 -55 0
99 -96 55 0
-99 96 55 0
-99 -96 -55 0
98 58 -56 0
98 -58 56 0
-98 58 56 0
-98 -58 -56 0
-100 99 0
-100 54 0
-100 53 -56 0
-100 -53 56 0
100 -99 53 56 -54 0
100 -99 -53 -56 -54 0
102 99 -53 0
102 -99 53 0
-102 99 53 0
-102 -99 -53 0
101 56 -54 0
101 -56 54 0
-101 56 54 0
-101 -56 -54 0
-103 102 0
-103 52 0
-103 51 -54 0
-103 -51 54 0
103 -102 51 54 -52 0
103 -102 -51 -54 -52 0
105 102 -51 0
105 -102 51 0
-105 102 51 0
-105 -102 -51 0
104 54 -52 0
104 -54 52 0
-104 54 52 0
-104 -54 -52 0
-106 105 0
-106 50 0
-106 49 -52 0
-106 -49 52 0
106 -105 49 52 -50 0
106 -105 -49 -52 -50 0
108 105 -49 0
108 -105 49 0
-108 105 49 0
-108 -105 -49 0
107 52 -50 0
107 -52 50 0
-107 52 50 0
-107 -52 -50 0
-109 108 0
-109 48 0
-109 47 -50 0
-109 -47 50 0
109 -108 47 50 -48 0
109 -108 -47 -50 -48 0
111 108 -47 0
111 -108 47 0
-111 108 47 0
-111 -108 -47 0
110 50 -48 0
110 -50 48 0
-110 50 48 0
-110 -50 -48 0
-112 111 0
-112 46 0
-112 45 -48 0
-112 -45 48 0
112 -111 45 48 -46 0
112 -111 -45 -48 -46 0
114 111 -45 0
114 -111 45 0
-114 111 45 0
-114 -111 -45 0
113 48 -46 0
113 -48 46 0
-113 48 46 0
-113 -48 -46 0
-115 114 0
-115 44 0
-115 43 -46 0
-115 -43 46 0
115 -114 43 46 -44 0
115 -114 -43 -46 -44 0
117 114 -43 0
117 -114 43 0
-117 114 43 0
-117 -114 -43 0
116 46 -44 0
116 -46 44 0
-116 46 44 0
-116 -46 -44 0
-118 117 0
-118 42 0
-118 41 -44 0
-118 -41 44 0
118 -117 41 44 -42 0
118 -117 -41 -44 -42 0
120 117 -41 0
120 -117 41 0
-120 117 41 0
-120 -117 -41 0
119 44 -42 0
119 -44 42 0
-119 44 42 0
-119 -44 -42 0
-121 120 0
-121 40 0
-121 39 -42 0
-121 -39 42 0
121 -120 39 42 -40 0
121 -120 -39 -42 -40 0
123 120 -39 0
123 -120 39 0
-123 120 39 0
-123 -120 -39 0
122 42 -40 0
122 -42 40 0
-122 42 40 0
-122 -42 -40 0
-124 123 0
-124 38 0
-124 37 -40 0
-124 -37 40 0
124 -123 37 40 -38 0
124 -123 -37 -40 -38 0
126 123 -37 0
126 -123 37 0
-126 123 37 0
-126 -123 -37 0
125 40 -38 0
125 -40 38 0
-125 40 38 0
-125 -40 -38 0
-127 126 0
-127 36 0
-127 35 -38 0
-127 -35 38 0
127 -126 35 38 -36 0
127 -126 -35 -38 -36 0
129 126 -35 0
129 -126 35 0
-129 126 35 0
-129 -126 -35 0
128 38 -36 0
128 -38 36 0
-128 38 36 0
-128 -38 -36 0
-130 129 0
-130 34 0
-130 33 -36 0
-130 -33 36 0
130 -129 33 36 -34 0
130 -129 -33 -36 -34 0
132 129 -33 0
132 -129 33 0
-132 129 33 0
-132 -129 -33 0
131 36 -34 0
131 -36 34 0
-131 36 34 0
-131 -36 -34 0
-133 132 0
-133 32 0
-133 31 -34 0
-133 -31 34 0
133 -132 31 34 -32 0
133 -132 -31 -34 -32 0
135 132 -31 0
135 -132 31 0
-135 132 31 0
-135 -132 -31 0
134 34 -32 0
134 -34 32 0
-134 34 32 0
-134 -34 -32 0
-136 135 0
-136 30 0
-136 29 -32 0
-136 -29 32 0
136 -135 29 32 -30 0
136 -135 -29 -32 -30 0
138 135 -29 0
138 -135 29 0
-138 135 29 0
-138 -135 -29 0
137 32 -30 0
137 -32 30 0
-137 32 30 0
-137 -32 -30 0
-139 138 0
-139 28 0
-139 27 -30 0
-139 -27 30 0
139 -138 27 30 -28 0
139 -138 -27 -30 -28 0
141 138 -27 0
141 -138 27 0
-141 138 27 0
-141 -138 -27 0
140 30 -28 0
140 -30 28 0
-140 30 28 0
-140 -30 -28 0
-142 141 0
-142 26 0
-142 25 -28 0
-142 -25 28 0
142 -141 25 28 -26 0
142 -141 -25 -28 -26 0
144 141 -25 0
144 -141 25 0
-144 141 25 0
-144 -141 -25 0
143 28 -26 0
143 -28 26 0
-143 28 26 0
-143 -28 -26 0
-145 144 0
-145 24 0
-145 23 -26 0
-145 -23 26 0
145 -144 23 26 -24 0
145 -144 -23 -26 -24 0
147 144 -23 0
147 -144 23 0
-147 144 23 0
-147 -144 -23 0
146 26 -24 0
146 -26 24 0
-146 26 24 0
-146 -26 -24 0
-148 147 0
-148 22 0
-148 21 -24 0
-148 -21 24 0
148 -147 21 24 -22 0
148 -147 -21 -24 -22 0
150 147 -21 0
150 -147 21 0
-150 147 21 0
-150 -147 -21 0
149 24 -22 0
149 -24 22 0
-149 24 22 0
-149 -24 -22 0
-151 150 0
-151 20 0
-151 19 -22 0
-151 -19 22 0
151 -150 19 22 -20 0
151 -150 -19 -22 -20 0
153 150 -19 0
153 -150 19 0
-153 150 19 0
-153 -150 -19 0
152 22 -20 0
152 -22 20 0
-152 22 20 0
-152 -22 -20 0
-154 153 0
-154 18 0
-154 17 -20 0
-154 -17 20 0
154 -153 17 20 -18 0
154 -153 -17 -20 -18 0
156 153 -17 0
156 -153 17 0
-156 153 17 0
-156 -153 -17 0
155 20 -18 0
155 -20 18 0
-155 20 18 0
-155 -20 -18 0
-157 156 0
-157 16 0
-157 15 -18 0
-157 -15 18 0
157 -156 15 18 -16 0
157 -156 -15 -18 -16 0
159 156 -15 0
159 -156 15 0
-159 156 15 0
-159 -156 -15 0
158 18 -16 0
158 -18 16 0
-158 18 16 0
-158 -18 -16 0
-160 159 0
-160 14 0
-160 13 -16 0
-160 -13 16 0
160 -159 13 16 -14 0
160 -159 -13 -16 -14 0
162 159 -13 0
162 -159 13 0
-162 159 13 0
-162 -159 -13 0
161 16 -14 0
161 -16 14 0
-161 16 14 0
-161 -16 -14 0
-163 162 0
-163 12 0
-163 11 -14 0
-163 -11 14 0
163 -162 11 14 -12 0
163 -162 -11 -14 -12 0
165 162 -11 0
165 -162 11 0
-165 162 11 0
-165 -162 -11 0
164 14 -12 0
164 -14 12 0
-164 14 12 0
-164 -14 -12 0
-166 165 0
-166 10 0
-166 9 -12 0
-166 -9 12 0
166 -165 9 12 -10 0
166 -165 -9 -12 -10 0
168 165 -9 0
168 -165 9 0
-168 165 9 0
-168 -165 -9 0
167 12 -10 0
167 -12 10 0
-167 12 10 0
-167 -12 -10 0
-169 168 0
-169 8 0
-169 7 -10 0
-169 -7 10 0
169 -168 7 10 -8 0
169 -168 -7 -10 -8 0
171 168 -7 0
171 -168 7 0
-171 168 7 0
-171 -168 -7 0
170 10 -8 0
170 -10 8 0
-170 10 8 0
-170 -10 -8 0
-172 171 0
-172 6 0
-172 5 -8 0
-172 -5 8 0
172 -171 5 8 -6 0
172 -171 -5 -8 -6 0
174 171 -5 0
174 -171 5 0
-174 171 5 0
-174 -171 -5 0
173 8 -6 0
173 -8 6 0
-173 8 6 0
-173 -8 -6 0
-175 174 0
-175 4 0
-175 3 -6 0
-175 -3 6 0
175 -174 3 6 -4 0
175 -174 -3 -6 -4 0
177 174 -3 0
177 -174 3 0
-177 174 3 0
-177 -174 -3 0
176 6 -4 0
176 -6 4 0
-176 6 4 0
-176 -6 -4 0
-178 177 0
-178 2 0
-178 1 -4 0
-178 -1 4 0
178 -177 1 4 -2 0
178 -177 -1 -4 -2 0
180 177 -1 0
180 -177 1 0
-180 177 1 0
-180 -177 -1 0
179 4 -2 0
179 -4 2 0
-179 4 2 0
-179 -4 -2 0
-180 0
-177 0
-179 0
-174 0
-176 0
-171 0
-173 0
-168 0
-170 0
-165 0
-167 0
-162 0
-164 0
-159 0
-161 0
-156 0
-158 0
-153 0
-155 0
-150 0
-152 0
-147 0
-149 0
-144 0
-146 0
-141 0
-143 0
-138 0
-140 0
-135 0
-137 0
-132 0
-134 0
-129 0
-131 0
-126 0
-128 0
-123 0
-125 0
-120 0
-122 0
-117 0
-119 0
-114 0
-116 0
-111 0
-113 0
-108 0
-110 0
-105 0
-107 0
-102 0
-104 0
-99 0
-101 0
-96 0
-98 0
-93 0
-95 0
-90 0
-92 0
-87 0
-89 0
-84 0
-86 0
-81 0
-83 0
-74 0
-80 0
